(set-info :smt-lib-version 2.6)
(set-logic ALIA)
(set-info :source |
Generated by the tool Ultimate Automizer [1,2] which implements
an automata theoretic approach [3] to software verification.

This SMT script belongs to a set of SMT scripts that was generated by
applying Ultimate Automizer to benchmarks [4] from the SV-COMP 2023 [5,6].
This script may not contain all SMT commands that Ultimate Automizer
issued. In order to meet the restrictions for SMT-COMP benchmarks 
we dropped the commands for getting values (resp. models), 
unsatisfiable cores, and interpolants.

2023-03-21, Matthias Heizmann (heizmann@informatik.uni-freiburg.de)

[1] https://ultimate.informatik.uni-freiburg.de/automizer/
[2] Matthias Heizmann, Max Barth, Daniel Dietsch, Leonard Fichtner,
     Jochen Hoenicke, Dominik Klumpp, Mehdi Naouar, Tanja Schindler,
     Frank Schüssele, Andreas Podelski: Ultimate Automizer and the
     CommuHash Normal Form (Competition Contribution). TACAS 2023
[3] Matthias Heizmann, Jochen Hoenicke, Andreas Podelski: Software Model
     Checking for People Who Love Automata. CAV 2013
[4] https://github.com/sosy-lab/sv-benchmarks
[5] Dirk Beyer: Competition on Software Verification and
     Witness Validation: SV-COMP 2023.  TACAS 2023
[6] https://sv-comp.sosy-lab.org/2023/
|)
(set-info :license "https://creativecommons.org/licenses/by/4.0/")
(set-info :category "industrial")
(set-info :status unknown)
(declare-fun |c_#valid| () (Array Int Int))
(declare-fun |c_#memory_$Pointer$.base| () (Array Int (Array Int Int)))
(declare-fun |c_#memory_$Pointer$.offset| () (Array Int (Array Int Int)))
(declare-fun |c_#memory_int| () (Array Int (Array Int Int)))
(declare-fun |c_ULTIMATE.start_main_#t~mem8#1| () Int)
(declare-fun |c_ULTIMATE.start_main_~p~0#1.base| () Int)
(declare-fun |c_ULTIMATE.start_main_~p~0#1.offset| () Int)
(declare-fun |c_ULTIMATE.start_main_~a~0#1.base| () Int)
(declare-fun |c_ULTIMATE.start_main_~a~0#1.offset| () Int)
(assert (let ((.cse3 (+ 8 |c_ULTIMATE.start_main_~a~0#1.offset|)) (.cse1 (+ |c_ULTIMATE.start_main_~p~0#1.offset| 8))) (and (forall ((v_arrayElimArr_7 (Array Int Int))) (let ((.cse2 (select v_arrayElimArr_7 .cse1))) (or (forall ((v_arrayElimArr_8 (Array Int Int)) (v_ArrVal_850 (Array Int Int))) (let ((.cse0 (select (select (store (store |c_#memory_$Pointer$.offset| |c_ULTIMATE.start_main_~p~0#1.base| v_arrayElimArr_8) .cse2 v_ArrVal_850) |c_ULTIMATE.start_main_~a~0#1.base|) .cse3))) (or (= .cse0 |c_ULTIMATE.start_main_~p~0#1.offset|) (not (= (select v_arrayElimArr_8 .cse1) 0)) (= |c_ULTIMATE.start_main_~a~0#1.offset| (+ .cse0 4))))) (= .cse2 |c_ULTIMATE.start_main_~a~0#1.base|) (forall ((v_ArrVal_851 (Array Int Int))) (= .cse2 (select (select (store (store |c_#memory_$Pointer$.base| |c_ULTIMATE.start_main_~p~0#1.base| v_arrayElimArr_7) .cse2 v_ArrVal_851) |c_ULTIMATE.start_main_~a~0#1.base|) .cse3))) (not (= (select |c_#valid| .cse2) 0))))) (forall ((v_arrayElimCell_93 Int) (v_arrayElimArr_8 (Array Int Int)) (v_ArrVal_850 (Array Int Int))) (let ((.cse4 (select (select (store (store |c_#memory_$Pointer$.offset| |c_ULTIMATE.start_main_~p~0#1.base| v_arrayElimArr_8) v_arrayElimCell_93 v_ArrVal_850) |c_ULTIMATE.start_main_~a~0#1.base|) .cse3))) (let ((.cse5 (+ .cse4 4))) (or (= .cse4 |c_ULTIMATE.start_main_~p~0#1.offset|) (not (= (select |c_#valid| v_arrayElimCell_93) 0)) (not (= (select v_arrayElimArr_8 .cse1) 0)) (= .cse5 0) (= .cse5 |c_ULTIMATE.start_main_~a~0#1.offset|) (= |c_ULTIMATE.start_main_~a~0#1.base| v_arrayElimCell_93))))) (forall ((v_arrayElimArr_7 (Array Int Int))) (let ((.cse7 (select v_arrayElimArr_7 .cse1))) (or (forall ((v_ArrVal_851 (Array Int Int))) (let ((.cse6 (select (select (store (store |c_#memory_$Pointer$.base| |c_ULTIMATE.start_main_~p~0#1.base| v_arrayElimArr_7) .cse7 v_ArrVal_851) |c_ULTIMATE.start_main_~a~0#1.base|) .cse3))) (or (= |c_ULTIMATE.start_main_~p~0#1.base| .cse6) (= |c_ULTIMATE.start_main_~a~0#1.base| .cse6)))) (forall ((v_arrayElimArr_8 (Array Int Int)) (v_ArrVal_850 (Array Int Int))) (or (= (+ (select (select (store (store |c_#memory_$Pointer$.offset| |c_ULTIMATE.start_main_~p~0#1.base| v_arrayElimArr_8) .cse7 v_ArrVal_850) |c_ULTIMATE.start_main_~a~0#1.base|) .cse3) 4) 0) (not (= (select v_arrayElimArr_8 .cse1) 0)))) (= .cse7 |c_ULTIMATE.start_main_~a~0#1.base|) (not (= (select |c_#valid| .cse7) 0))))) (forall ((v_arrayElimArr_7 (Array Int Int))) (let ((.cse8 (select v_arrayElimArr_7 .cse1))) (or (forall ((v_arrayElimArr_8 (Array Int Int)) (v_ArrVal_850 (Array Int Int))) (or (not (= (select v_arrayElimArr_8 .cse1) 0)) (= |c_ULTIMATE.start_main_~a~0#1.offset| (+ (select (select (store (store |c_#memory_$Pointer$.offset| |c_ULTIMATE.start_main_~p~0#1.base| v_arrayElimArr_8) .cse8 v_ArrVal_850) |c_ULTIMATE.start_main_~a~0#1.base|) .cse3) 4)))) (forall ((v_ArrVal_851 (Array Int Int))) (let ((.cse9 (select (select (store (store |c_#memory_$Pointer$.base| |c_ULTIMATE.start_main_~p~0#1.base| v_arrayElimArr_7) .cse8 v_ArrVal_851) |c_ULTIMATE.start_main_~a~0#1.base|) .cse3))) (or (= |c_ULTIMATE.start_main_~p~0#1.base| .cse9) (= .cse8 .cse9)))) (= .cse8 |c_ULTIMATE.start_main_~a~0#1.base|) (not (= (select |c_#valid| .cse8) 0))))) (or (and (forall ((v_arrayElimArr_7 (Array Int Int))) (let ((.cse10 (select v_arrayElimArr_7 .cse1))) (or (forall ((v_arrayElimArr_8 (Array Int Int)) (v_ArrVal_850 (Array Int Int))) (or (not (= (select v_arrayElimArr_8 .cse1) 0)) (= |c_ULTIMATE.start_main_~a~0#1.offset| (+ (select (select (store (store |c_#memory_$Pointer$.offset| |c_ULTIMATE.start_main_~p~0#1.base| v_arrayElimArr_8) .cse10 v_ArrVal_850) |c_ULTIMATE.start_main_~a~0#1.base|) .cse3) 4)))) (forall ((v_ArrVal_851 (Array Int Int))) (let ((.cse11 (select (select (store (store |c_#memory_$Pointer$.base| |c_ULTIMATE.start_main_~p~0#1.base| v_arrayElimArr_7) .cse10 v_ArrVal_851) |c_ULTIMATE.start_main_~a~0#1.base|) .cse3))) (or (= |c_ULTIMATE.start_main_~p~0#1.base| .cse11) (= .cse10 .cse11)))) (not (= (select |c_#valid| .cse10) 0))))) (forall ((v_arrayElimCell_94 Int) (v_arrayElimArr_8 (Array Int Int)) (v_ArrVal_850 (Array Int Int))) (let ((.cse13 (select (select (store (store |c_#memory_$Pointer$.offset| |c_ULTIMATE.start_main_~p~0#1.base| v_arrayElimArr_8) v_arrayElimCell_94 v_ArrVal_850) |c_ULTIMATE.start_main_~a~0#1.base|) .cse3))) (let ((.cse12 (+ .cse13 4))) (or (not (= (select |c_#valid| v_arrayElimCell_94) 0)) (= .cse12 |c_ULTIMATE.start_main_~a~0#1.offset|) (not (= (select v_arrayElimArr_8 .cse1) 0)) (= .cse12 0) (= .cse13 |c_ULTIMATE.start_main_~p~0#1.offset|))))) (forall ((v_arrayElimArr_7 (Array Int Int))) (let ((.cse15 (select v_arrayElimArr_7 .cse1))) (or (forall ((v_arrayElimArr_8 (Array Int Int)) (v_ArrVal_850 (Array Int Int))) (let ((.cse14 (select (select (store (store |c_#memory_$Pointer$.offset| |c_ULTIMATE.start_main_~p~0#1.base| v_arrayElimArr_8) .cse15 v_ArrVal_850) |c_ULTIMATE.start_main_~a~0#1.base|) .cse3))) (or (= .cse14 |c_ULTIMATE.start_main_~p~0#1.offset|) (not (= (select v_arrayElimArr_8 .cse1) 0)) (= |c_ULTIMATE.start_main_~a~0#1.offset| (+ .cse14 4))))) (forall ((v_ArrVal_851 (Array Int Int))) (= .cse15 (select (select (store (store |c_#memory_$Pointer$.base| |c_ULTIMATE.start_main_~p~0#1.base| v_arrayElimArr_7) .cse15 v_ArrVal_851) |c_ULTIMATE.start_main_~a~0#1.base|) .cse3))) (not (= (select |c_#valid| .cse15) 0))))) (forall ((v_arrayElimArr_7 (Array Int Int))) (let ((.cse16 (select v_arrayElimArr_7 .cse1))) (or (forall ((v_ArrVal_851 (Array Int Int))) (= |c_ULTIMATE.start_main_~a~0#1.base| (select (select (store (store |c_#memory_$Pointer$.base| |c_ULTIMATE.start_main_~p~0#1.base| v_arrayElimArr_7) .cse16 v_ArrVal_851) |c_ULTIMATE.start_main_~a~0#1.base|) .cse3))) (forall ((v_arrayElimArr_8 (Array Int Int)) (v_ArrVal_850 (Array Int Int))) (let ((.cse17 (select (select (store (store |c_#memory_$Pointer$.offset| |c_ULTIMATE.start_main_~p~0#1.base| v_arrayElimArr_8) .cse16 v_ArrVal_850) |c_ULTIMATE.start_main_~a~0#1.base|) .cse3))) (or (= (+ .cse17 4) 0) (= .cse17 |c_ULTIMATE.start_main_~p~0#1.offset|) (not (= (select v_arrayElimArr_8 .cse1) 0))))) (not (= (select |c_#valid| .cse16) 0))))) (forall ((v_arrayElimArr_7 (Array Int Int))) (let ((.cse19 (select v_arrayElimArr_7 .cse1))) (or (forall ((v_ArrVal_851 (Array Int Int))) (let ((.cse18 (select (select (store (store |c_#memory_$Pointer$.base| |c_ULTIMATE.start_main_~p~0#1.base| v_arrayElimArr_7) .cse19 v_ArrVal_851) |c_ULTIMATE.start_main_~a~0#1.base|) .cse3))) (or (= |c_ULTIMATE.start_main_~p~0#1.base| .cse18) (= |c_ULTIMATE.start_main_~a~0#1.base| .cse18)))) (forall ((v_arrayElimArr_8 (Array Int Int)) (v_ArrVal_850 (Array Int Int))) (or (= (+ (select (select (store (store |c_#memory_$Pointer$.offset| |c_ULTIMATE.start_main_~p~0#1.base| v_arrayElimArr_8) .cse19 v_ArrVal_850) |c_ULTIMATE.start_main_~a~0#1.base|) .cse3) 4) 0) (not (= (select v_arrayElimArr_8 .cse1) 0)))) (not (= (select |c_#valid| .cse19) 0))))) (forall ((v_arrayElimArr_7 (Array Int Int))) (let ((.cse20 (select v_arrayElimArr_7 .cse1))) (or (forall ((v_ArrVal_851 (Array Int Int))) (let ((.cse21 (select (select (store (store |c_#memory_$Pointer$.base| |c_ULTIMATE.start_main_~p~0#1.base| v_arrayElimArr_7) .cse20 v_ArrVal_851) |c_ULTIMATE.start_main_~a~0#1.base|) .cse3))) (or (= .cse20 .cse21) (= |c_ULTIMATE.start_main_~a~0#1.base| .cse21)))) (forall ((v_arrayElimArr_8 (Array Int Int)) (v_ArrVal_850 (Array Int Int))) (or (= (select (select (store (store |c_#memory_$Pointer$.offset| |c_ULTIMATE.start_main_~p~0#1.base| v_arrayElimArr_8) .cse20 v_ArrVal_850) |c_ULTIMATE.start_main_~a~0#1.base|) .cse3) |c_ULTIMATE.start_main_~p~0#1.offset|) (not (= (select v_arrayElimArr_8 .cse1) 0)))) (not (= (select |c_#valid| .cse20) 0))))) (forall ((v_arrayElimArr_7 (Array Int Int))) (let ((.cse22 (select v_arrayElimArr_7 .cse1))) (or (forall ((v_ArrVal_851 (Array Int Int))) (= |c_ULTIMATE.start_main_~p~0#1.base| (select (select (store (store |c_#memory_$Pointer$.base| |c_ULTIMATE.start_main_~p~0#1.base| v_arrayElimArr_7) .cse22 v_ArrVal_851) |c_ULTIMATE.start_main_~a~0#1.base|) .cse3))) (forall ((v_arrayElimArr_8 (Array Int Int)) (v_ArrVal_850 (Array Int Int))) (let ((.cse23 (+ (select (select (store (store |c_#memory_$Pointer$.offset| |c_ULTIMATE.start_main_~p~0#1.base| v_arrayElimArr_8) .cse22 v_ArrVal_850) |c_ULTIMATE.start_main_~a~0#1.base|) .cse3) 4))) (or (= .cse23 0) (not (= (select v_arrayElimArr_8 .cse1) 0)) (= |c_ULTIMATE.start_main_~a~0#1.offset| .cse23)))) (not (= (select |c_#valid| .cse22) 0))))) (forall ((v_arrayElimArr_7 (Array Int Int))) (let ((.cse25 (select v_arrayElimArr_7 .cse1))) (or (forall ((v_ArrVal_851 (Array Int Int))) (let ((.cse24 (select (select (store (store |c_#memory_$Pointer$.base| |c_ULTIMATE.start_main_~p~0#1.base| v_arrayElimArr_7) .cse25 v_ArrVal_851) |c_ULTIMATE.start_main_~a~0#1.base|) .cse3))) (or (= |c_ULTIMATE.start_main_~p~0#1.base| .cse24) (= .cse25 .cse24) (= |c_ULTIMATE.start_main_~a~0#1.base| .cse24)))) (not (= (select |c_#valid| .cse25) 0)))))) (= |c_ULTIMATE.start_main_~a~0#1.offset| 0)) (forall ((v_arrayElimArr_7 (Array Int Int))) (let ((.cse26 (select v_arrayElimArr_7 .cse1))) (or (forall ((v_ArrVal_851 (Array Int Int))) (= |c_ULTIMATE.start_main_~p~0#1.base| (select (select (store (store |c_#memory_$Pointer$.base| |c_ULTIMATE.start_main_~p~0#1.base| v_arrayElimArr_7) .cse26 v_ArrVal_851) |c_ULTIMATE.start_main_~a~0#1.base|) .cse3))) (forall ((v_arrayElimArr_8 (Array Int Int)) (v_ArrVal_850 (Array Int Int))) (let ((.cse27 (+ (select (select (store (store |c_#memory_$Pointer$.offset| |c_ULTIMATE.start_main_~p~0#1.base| v_arrayElimArr_8) .cse26 v_ArrVal_850) |c_ULTIMATE.start_main_~a~0#1.base|) .cse3) 4))) (or (= .cse27 0) (not (= (select v_arrayElimArr_8 .cse1) 0)) (= |c_ULTIMATE.start_main_~a~0#1.offset| .cse27)))) (= .cse26 |c_ULTIMATE.start_main_~a~0#1.base|) (not (= (select |c_#valid| .cse26) 0))))) (forall ((v_arrayElimArr_7 (Array Int Int))) (let ((.cse28 (select v_arrayElimArr_7 .cse1))) (or (forall ((v_ArrVal_851 (Array Int Int))) (let ((.cse29 (select (select (store (store |c_#memory_$Pointer$.base| |c_ULTIMATE.start_main_~p~0#1.base| v_arrayElimArr_7) .cse28 v_ArrVal_851) |c_ULTIMATE.start_main_~a~0#1.base|) .cse3))) (or (= .cse28 .cse29) (= |c_ULTIMATE.start_main_~a~0#1.base| .cse29)))) (forall ((v_arrayElimArr_8 (Array Int Int)) (v_ArrVal_850 (Array Int Int))) (or (= (select (select (store (store |c_#memory_$Pointer$.offset| |c_ULTIMATE.start_main_~p~0#1.base| v_arrayElimArr_8) .cse28 v_ArrVal_850) |c_ULTIMATE.start_main_~a~0#1.base|) .cse3) |c_ULTIMATE.start_main_~p~0#1.offset|) (not (= (select v_arrayElimArr_8 .cse1) 0)))) (= .cse28 |c_ULTIMATE.start_main_~a~0#1.base|) (not (= (select |c_#valid| .cse28) 0))))) (forall ((v_arrayElimArr_7 (Array Int Int))) (let ((.cse31 (select v_arrayElimArr_7 .cse1))) (or (forall ((v_ArrVal_851 (Array Int Int))) (let ((.cse30 (select (select (store (store |c_#memory_$Pointer$.base| |c_ULTIMATE.start_main_~p~0#1.base| v_arrayElimArr_7) .cse31 v_ArrVal_851) |c_ULTIMATE.start_main_~a~0#1.base|) .cse3))) (or (= |c_ULTIMATE.start_main_~p~0#1.base| .cse30) (= .cse31 .cse30) (= |c_ULTIMATE.start_main_~a~0#1.base| .cse30)))) (= .cse31 |c_ULTIMATE.start_main_~a~0#1.base|) (not (= (select |c_#valid| .cse31) 0))))) (forall ((v_arrayElimArr_7 (Array Int Int))) (let ((.cse32 (select v_arrayElimArr_7 .cse1))) (or (forall ((v_ArrVal_851 (Array Int Int))) (= |c_ULTIMATE.start_main_~a~0#1.base| (select (select (store (store |c_#memory_$Pointer$.base| |c_ULTIMATE.start_main_~p~0#1.base| v_arrayElimArr_7) .cse32 v_ArrVal_851) |c_ULTIMATE.start_main_~a~0#1.base|) .cse3))) (= .cse32 |c_ULTIMATE.start_main_~a~0#1.base|) (forall ((v_arrayElimArr_8 (Array Int Int)) (v_ArrVal_850 (Array Int Int))) (let ((.cse33 (select (select (store (store |c_#memory_$Pointer$.offset| |c_ULTIMATE.start_main_~p~0#1.base| v_arrayElimArr_8) .cse32 v_ArrVal_850) |c_ULTIMATE.start_main_~a~0#1.base|) .cse3))) (or (= (+ .cse33 4) 0) (= .cse33 |c_ULTIMATE.start_main_~p~0#1.offset|) (not (= (select v_arrayElimArr_8 .cse1) 0))))) (not (= (select |c_#valid| .cse32) 0))))))))
(assert (not (or (forall ((v_arrayElimArr_8 (Array Int Int)) (v_arrayElimArr_7 (Array Int Int)) (v_ArrVal_846 Int) (v_ArrVal_850 (Array Int Int)) (v_ArrVal_843 Int) (v_ArrVal_851 (Array Int Int))) (let ((.cse0 (+ |c_ULTIMATE.start_main_~p~0#1.offset| 8))) (let ((.cse2 (select v_arrayElimArr_7 .cse0))) (let ((.cse1 (let ((.cse4 (store |c_#memory_int| |c_ULTIMATE.start_main_~p~0#1.base| (store (store (select |c_#memory_int| |c_ULTIMATE.start_main_~p~0#1.base|) |c_ULTIMATE.start_main_~p~0#1.offset| v_ArrVal_843) .cse0 v_ArrVal_846)))) (store .cse4 .cse2 (store (select .cse4 .cse2) 0 3))))) (or (not (= (select v_arrayElimArr_8 .cse0) 0)) (not (= (let ((.cse3 (+ 8 |c_ULTIMATE.start_main_~a~0#1.offset|))) (select (select .cse1 (select (select (store (store |c_#memory_$Pointer$.base| |c_ULTIMATE.start_main_~p~0#1.base| v_arrayElimArr_7) .cse2 v_ArrVal_851) |c_ULTIMATE.start_main_~a~0#1.base|) .cse3)) (+ (select (select (store (store |c_#memory_$Pointer$.offset| |c_ULTIMATE.start_main_~p~0#1.base| v_arrayElimArr_8) .cse2 v_ArrVal_850) |c_ULTIMATE.start_main_~a~0#1.base|) .cse3) 4))) 0)) (not (= (select |c_#valid| .cse2) 0)) (not (= (select (select .cse1 |c_ULTIMATE.start_main_~a~0#1.base|) |c_ULTIMATE.start_main_~a~0#1.offset|) 1))))))) (= 0 |c_ULTIMATE.start_main_#t~mem8#1|))))
(check-sat)
(exit)
